NAME : X_30_seed_123_id_19
TYPE : CVRP
DIMENSION : 237
EDGE_WEIGHT_TYPE : EUC_2D
CAPACITY : 18
NODE_COORD_SECTION
1	0	0
2	522	916
3	238	246
4	283	719
5	678	450
6	478	413
7	135	752
8	927	715
9	842	446
10	954	161
11	237	531
12	887	163
13	290	645
14	748	131
15	43	723
16	301	158
17	897	751
18	197	166
19	382	666
20	158	421
21	304	793
22	134	329
23	779	882
24	328	82
25	529	591
26	452	842
27	685	297
28	297	940
29	44	864
30	195	57
31	656	852
32	410	706
33	931	632
34	551	658
35	860	984
36	241	700
37	720	927
38	476	278
39	76	236
40	85	406
41	928	904
42	153	786
43	155	622
44	16	591
45	71	963
46	38	561
47	902	77
48	235	767
49	76	349
50	638	727
51	639	655
52	507	737
53	666	94
54	519	840
55	464	967
56	699	82
57	795	711
58	339	311
59	341	79
60	882	180
61	427	93
62	311	521
63	338	729
64	946	650
65	730	889
66	176	620
67	845	209
68	963	573
69	849	400
70	800	867
71	198	797
72	466	484
73	216	556
74	224	775
75	892	827
76	86	308
77	335	70
78	298	112
79	214	909
80	38	79
81	497	501
82	718	157
83	482	371
84	684	685
85	770	998
86	313	277
87	956	983
88	573	814
89	238	348
90	805	542
91	219	366
92	310	79
93	513	971
94	344	987
95	251	605
96	760	294
97	884	744
98	11	418
99	516	379
100	517	164
101	550	972
102	650	46
103	720	738
104	735	487
105	484	776
106	751	859
107	286	90
108	174	587
109	859	254
110	892	941
111	497	659
112	404	484
113	19	16
114	557	527
115	218	300
116	204	495
117	556	92
118	184	853
119	292	323
120	96	63
121	42	792
122	206	713
123	303	343
124	435	231
125	749	591
126	292	546
127	127	940
128	718	575
129	179	906
130	596	197
131	655	358
132	801	496
133	284	63
134	417	476
135	96	963
136	960	172
137	855	827
138	662	496
139	900	864
140	533	885
141	446	917
142	99	171
143	684	747
144	51	600
145	14	381
146	515	664
147	426	589
148	337	330
149	542	758
150	68	206
151	348	448
152	595	898
153	59	91
154	742	215
155	121	396
156	436	479
157	250	969
158	222	755
159	379	440
160	617	512
161	972	511
162	148	345
163	633	183
164	463	567
165	116	245
166	404	68
167	956	154
168	231	631
169	708	422
170	70	36
171	70	931
172	183	274
173	919	147
174	602	901
175	71	471
176	824	853
177	586	597
178	97	994
179	544	82
180	214	750
181	362	653
182	641	237
183	583	290
184	348	242
185	719	727
186	517	740
187	789	411
188	616	404
189	156	264
190	158	99
191	988	433
192	382	840
193	147	811
194	516	369
195	701	278
196	553	66
197	881	869
198	498	138
199	140	330
200	774	289
201	812	937
202	437	471
203	790	772
204	318	198
205	993	891
206	238	865
207	307	328
208	523	780
209	448	763
210	332	515
211	164	923
212	178	963
213	462	457
214	187	979
215	463	995
216	363	344
217	598	663
218	505	485
219	884	174
220	557	240
221	373	754
222	370	778
223	64	832
224	710	15
225	626	991
226	820	62
227	399	369
228	914	260
229	18	163
230	459	972
231	418	668
232	296	494
233	964	333
234	938	387
235	273	23
236	885	229
237	996	438
DEMAND_SECTION
1	0
2	1
3	1
4	1
5	1
6	1
7	1
8	1
9	1
10	1
11	1
12	1
13	1
14	1
15	1
16	1
17	1
18	1
19	1
20	1
21	1
22	1
23	1
24	1
25	1
26	1
27	1
28	1
29	1
30	1
31	1
32	1
33	1
34	1
35	1
36	1
37	1
38	1
39	1
40	1
41	1
42	1
43	1
44	1
45	1
46	1
47	1
48	1
49	1
50	1
51	1
52	1
53	1
54	1
55	1
56	1
57	1
58	1
59	1
60	1
61	1
62	1
63	1
64	1
65	1
66	1
67	1
68	1
69	1
70	1
71	1
72	1
73	1
74	1
75	1
76	1
77	1
78	1
79	1
80	1
81	1
82	1
83	1
84	1
85	1
86	1
87	1
88	1
89	1
90	1
91	1
92	1
93	1
94	1
95	1
96	1
97	1
98	1
99	1
100	1
101	1
102	1
103	1
104	1
105	1
106	1
107	1
108	1
109	1
110	1
111	1
112	1
113	1
114	1
115	1
116	1
117	1
118	1
119	1
120	1
121	1
122	1
123	1
124	1
125	1
126	1
127	1
128	1
129	1
130	1
131	1
132	1
133	1
134	1
135	1
136	1
137	1
138	1
139	1
140	1
141	1
142	1
143	1
144	1
145	1
146	1
147	1
148	1
149	1
150	1
151	1
152	1
153	1
154	1
155	1
156	1
157	1
158	1
159	1
160	1
161	1
162	1
163	1
164	1
165	1
166	1
167	1
168	1
169	1
170	1
171	1
172	1
173	1
174	1
175	1
176	1
177	1
178	1
179	1
180	1
181	1
182	1
183	1
184	1
185	1
186	1
187	1
188	1
189	1
190	1
191	1
192	1
193	1
194	1
195	1
196	1
197	1
198	1
199	1
200	1
201	1
202	1
203	1
204	1
205	1
206	1
207	1
208	1
209	1
210	1
211	1
212	1
213	1
214	1
215	1
216	1
217	1
218	1
219	1
220	1
221	1
222	1
223	1
224	1
225	1
226	1
227	1
228	1
229	1
230	1
231	1
232	1
233	1
234	1
235	1
236	1
237	1
DEPOT_SECTION
1
-1
EOF
